NAME : amz1121.135168_132168.tour
COMMENT : Cost = 135168_132168
COMMENT : Found by LKH-AMZ [Keld Helsgaun] Sun May 11 14:46:32 2025
COMMENT : TW viol.: 0 #: 0
TYPE : TOUR
DIMENSION : 174
TOUR_SECTION
76
119
160
103
141
109
15
131
81
107
49
117
105
96
65
8
158
73
87
165
33
74
34
31
173
137
111
64
80
127
45
20
43
174
62
4
92
41
152
72
154
48
70
94
133
171
69
128
25
151
71
38
104
5
46
11
110
21
144
153
169
142
77
35
138
2
55
113
82
84
118
19
86
132
91
58
68
147
3
18
115
27
88
63
61
6
97
22
14
112
59
57
24
30
85
143
168
37
32
139
40
50
135
39
79
129
121
149
167
47
90
60
29
16
155
166
162
157
36
1
172
134
130
146
106
56
124
23
120
114
125
108
7
51
17
148
10
161
101
145
53
83
9
99
164
140
66
28
123
52
42
156
116
13
95
136
93
75
102
44
67
126
170
98
100
150
12
78
89
26
54
159
163
122
-1
EOF
